----- Results -----
Principal Stresses (Pa):
63661977.236758
9827.817736
6522806.187678
Effective Stress (Pa): 63661977.236758
Safety Factor against Yielding: 0.016789
Safety Factor against Fracture Mode I: 0.001221
Safety Factor against Fracture Mode II: 0.002340
Safety Factor against Fracture Mode III: 0.001526
